HFSDDW
15	6	3
0	60	1	29	2	16
0	90	1	32	2	88
0	17	1	23	2	69
0	89	1	96	2	99
0	41	1	64	2	19
0	37	1	64	2	65
0	81	1	53	2	19
0	3	1	21	2	58
0	20	1	19	2	19
0	55	1	91	2	23
0	20	1	38	2	36
0	20	1	3	2	45
0	52	1	71	2	29
0	98	1	45	2	58
0	57	1	85	2	54
LBCmax: 417
RELDUE
-1	318	7	6
-1	443	3	5
-1	199	7	6
-1	62	6	2
-1	275	6	7
-1	387	8	9
-1	274	4	8
-1	189	1	6
-1	347	5	4
-1	57	1	5
-1	284	3	8
-1	76	5	4
-1	281	4	6
-1	336	1	6
-1	97	2	5
DDW
293	343
354	532
197	201
60	64
258	292
321	453
258	290
185	193
333	361
46	68
281	287
65	87
236	326
312	360
82	112
